40
253
10
13
40
67
49
34
63
78
37
15
7
0 1
0 3
0 4
0 6
0 8
0 9
0 11
0 12
0 14
0 16
0 23
0 28
0 36
1 5
1 17
1 26
1 27
1 28
1 29
1 30
1 32
1 34
1 35
1 37
2 8
2 16
2 18
2 20
2 31
2 33
2 35
2 38
2 39
3 5
3 7
3 10
3 11
3 12
3 18
3 19
3 21
3 24
3 26
3 31
3 33
3 37
4 11
4 16
4 18
4 24
4 27
5 10
5 15
5 18
5 20
5 21
5 23
5 30
5 32
5 38
5 39
6 9
6 10
6 16
6 19
6 20
6 26
6 29
6 34
6 36
6 37
6 39
7 9
7 11
7 12
7 18
7 20
7 25
7 32
7 33
7 35
7 36
8 10
8 12
8 14
8 20
8 21
8 27
8 31
8 32
8 37
9 11
9 13
9 14
9 17
9 24
9 27
9 29
9 31
9 33
9 34
9 35
10 11
10 15
10 17
10 19
10 20
10 22
10 24
10 30
10 32
10 36
11 12
11 14
11 18
11 21
11 25
11 32
11 33
11 35
11 36
12 13
12 15
12 17
12 18
12 19
12 20
12 24
12 25
12 26
12 27
12 28
13 16
13 18
13 22
13 23
13 27
13 29
13 31
13 32
13 33
13 34
13 36
13 38
13 39
14 16
14 22
14 26
14 29
14 30
14 31
14 32
14 36
14 37
15 16
15 20
15 21
15 28
15 34
15 36
16 19
16 23
16 30
16 35
16 37
16 38
17 19
17 20
17 21
17 24
17 26
17 30
17 31
17 35
18 19
18 20
18 22
18 25
18 28
18 31
18 35
18 38
19 23
19 24
19 25
19 29
19 36
20 21
20 35
20 39
21 23
21 24
21 26
21 34
21 36
22 25
22 27
22 30
22 36
23 24
23 26
23 29
23 30
23 31
23 35
23 36
24 29
24 30
24 36
25 26
25 28
25 29
25 33
25 34
25 35
26 28
26 29
26 31
26 33
26 36
26 37
27 28
27 29
27 30
27 31
27 32
27 33
27 35
27 36
27 39
28 29
28 31
28 35
29 30
29 31
29 32
29 34
29 35
29 39
30 32
30 37
30 39
31 35
31 38
31 39
32 33
32 36
32 38
33 34
33 36
33 39
34 35
35 37
30 28 22 27
19 11 33 12
17 35 29 18
13 36 26 8
34 10 24 37
5 6 9 16
25 2 39 3
0 15 23 1
20 38 21 7
14 4 32 31
